(set-info :Origin "This instance was generated by: BanditFuzz-- an RL fuzzer for SMT solvers" )
(set-info :Author "Joe Scott, Fed Mora, Vijay Ganesh" )
(set-info :Contact "Joe Scott, joseph.scott@uwaterloo.ca")
(set-logic QF_BV)
(declare-const bool_0 Bool)
(declare-const bool_1 Bool)
(declare-const bool_2 Bool)
(declare-const bool_3 Bool)
(declare-const bool_4 Bool)
(declare-const bv_0 (_ BitVec 32))
(declare-const bv_1 (_ BitVec 32))
(declare-const bv_2 (_ BitVec 32))
(declare-const bv_3 (_ BitVec 32))
(declare-const bv_4 (_ BitVec 32))
(assert (bvule (bvlshr (bvurem #x89f05deb  bv_3) (bvnor #x618e0182  #x11ad6fb0 )) (bvsrem (bvshl bv_1 #xdfc3d2d1 ) (bvxnor bv_1 bv_0))))
(assert (or (=> (bvule bv_4 bv_1) (=> bool_3 true)) (xor (bvsle #xd6f2c797  #x80ba51ce ) (bvule #xb7db7a42  #xabea18bd ))))
(assert (bvule (bvsmod (bvsrem bv_1 bv_3) (bvmul bv_1 bv_3)) (bvsub (bvsmod bv_1 bv_1) (bvsmod bv_4 #x46f9e69e ))))
(assert (or (and (not bool_1) (=> true bool_1)) (xor (bvsgt bv_0 bv_0) (bvsgt #xe283ce19  #xe03375f6 ))))
(assert (and (bvsgt (bvnor bv_3 #x5ee71b1a ) (bvxnor bv_2 bv_2)) (bvuge (bvadd #x7ca28a3d  bv_4) (bvor #x40dd06c8  #x43bd0783 ))))
(check-sat)
(exit)
